NAME: ACTUAL_TOURS/amz1096
TYPE: TOUR
COMMENT: RouteID_73a5f269-0cea-432f-b50d-2d068051d02b
DIMENSION: 132
TOUR_SECTION
81
19
90
110
16
92
15
83
44
82
86
71
119
128
32
97
53
56
66
101
115
94
12
70
1
21
76
132
6
123
41
91
13
10
77
126
11
127
20
60
79
38
55
74
30
125
106
75
57
118
108
42
96
36
69
102
124
51
4
99
52
58
85
95
78
14
131
17
34
104
47
89
100
98
120
2
63
65
26
33
5
130
111
54
107
3
93
28
103
43
105
22
112
23
27
35
117
113
68
59
62
67
50
80
24
29
31
9
129
8
64
73
72
40
121
45
7
37
49
84
116
114
88
25
109
18
61
48
87
39
46
122
-1
EOF
